interpreter/minisat/core/ex.vale
p cnf 30 30
1 2 3 0
4 5 6 0
7 8 9 0
10 11 12 0
13 14 15 0
16 17 18 0
19 20 21 0
22 23 24 0
25 26 27 0
28 29 30 0
-1 -2 -3 0
-4 -5 -6 0
-7 -8 -9 0
-10 -11 -12 0
-13 -14 -15 0
-16 -17 -18 0
-19 -20 -21 0
-22 -23 -24 0
-25 -26 -27 0
-28 -29 -30 0
1 -3 7 0
22 -5 8 0
30 3 7 0
22 13 -8 0
24 22 -1 0
20 10 30 0
-20 13 -7 0
14 -8 5 0
1 -4 9 0
1 -5 3 0