minisat/core/ex.vale.res
p cnf 30 65
3 2 1  0 
5 6 4  0 
7 8 9  0 
10 11 12  0 
13 14 15  0 
16 17 18  0 
19 20 21  0 
22 23 24  0 
25 26 27  0 
28 29 30  0 
-1 -2 -3  0 
-4 -5 -6  0 
-7 -8 -9  0 
-11 -12 -10  0 
-13 -14 -15  0 
-16 -17 -18  0 
-19 -20 -21  0 
-22 -23 -24  0 
-25 -26 -27  0 
-28 -29 -30  0 
7 -3 1  0 
22 -5 8  0 
3 7 30  0 
-8 13 22  0 
-1 22 24  0 
10 20 30  0 
-7 13 -20  0 
5 -8 14  0 
-4 9 1  0 
3 -5 1  0 
30 10 20  0 
-30 -20 -10  0 
-15 -10 5  0 
15 10 5  0 
20 10 30  0 
-1 0
-2 0
3 0
-4 0
5 0
-6 0
7 0
-8 0
-9 0
10 0
-11 0
-12 0
13 0
-14 0
-15 0
16 0
-17 0
-18 0
19 0
-20 0
-21 0
22 0
-23 0
-24 0
25 0
-26 0
-27 0
28 0
-29 0
-30 0

